
Gurobi 9.5.1 (win64, gurobi_cl) logging started Wed Jan 18 11:26:20 2023

Set parameter Username
Set parameter TimeLimit to value 3600
Set parameter LogFile to value "gurobi.log"
Academic license - for non-commercial use only - expires 2023-08-27
Using license file C:\Users\luhsa\gurobi.lic

Gurobi Optimizer version 9.5.1 build v9.5.1rc2 (win64)
Copyright (c) 2022, Gurobi Optimization, LLC

Read LP format model from file MPC-ARCP-pulp.lp
Reading time = 0.04 seconds
OBJ: 2020 rows, 774 columns, 10025 nonzeros
Thread count: 6 physical cores, 12 logical processors, using up to 12 threads
Optimize a model with 2020 rows, 774 columns and 10025 nonzeros
Model fingerprint: 0x4742824c
Variable types: 318 continuous, 456 integer (330 binary)
Coefficient statistics:
  Matrix range     [4e-01, 5e+02]
  Objective range  [5e+00, 8e+00]
  Bounds range     [1e+00, 1e+00]
  RHS range        [1e+00, 1e+03]
Presolve removed 1421 rows and 565 columns
Presolve time: 0.05s
Presolved: 599 rows, 209 columns, 2534 nonzeros
Variable types: 91 continuous, 118 integer (89 binary)
Found heuristic solution: objective 10.0000000

Root relaxation: infeasible, 146 iterations, 0.00 seconds (0.00 work units)

    Nodes    |    Current Node    |     Objective Bounds      |     Work
 Expl Unexpl |  Obj  Depth IntInf | Incumbent    BestBd   Gap | It/Node Time

     0     0 infeasible    0        10.00000   10.00000  0.00%     -    0s

Explored 1 nodes (146 simplex iterations) in 0.05 seconds (0.05 work units)
Thread count was 12 (of 12 available processors)

Solution count 1: 10 

Optimal solution found (tolerance 1.00e-04)
Best objective 1.000000000000e+01, best bound 1.000000000000e+01, gap 0.0000%

Wrote result file 'MPC-ARCP-pulp.sol'

